(declare-fun bvlambda_2_ () (_ BitVec 5))
(declare-fun bvlambda_33_ () (_ BitVec 11))
(declare-fun a160 () (Array (_ BitVec 1) (_ BitVec 10)))
(assert
(let (($e1 (_ bv0 1)))
(let (($e36 (_ bv1022 10)))
(let (($e288               bvlambda_33_ ))
(let (($e289         $e288                                    ))
(let (($e290 ((_ extract 9 0) $e289)))
(let (($e292               bvlambda_2_ ))
(let (($e295                                $e292 ))
(let (($e296         $e295              ))
(let (($e297 (   extract      $e296)))
(let (($e298 (store a160 (bvnot $e1)        $e36 )))
(let (($e299 (store $e298 $e297 $e290)))
(let (($e300 (select $e299 (bvnot $e1))))
             (   extract      $e300)
                                                                                                                                                                                                                                                                                                                                                                                                                                                                                                                                                                                                                                                                                                                                                                                                                                                                                                                                                                                                                                                                                                                                                                                                                                                                                                                                                                                                                                                                                                                                                                                                                                                                                                                                                                                                                                                                                                                                                                                                                                                                                                                                                            ))))))  ) )))                                                                                                                                                                                              )                                  ))
